20190630 2253594.46 2253441.42
20180214 2253600.00 2002800.00
20180130 2253594.46 741000.64
20170908 2005660.57 741000.64
20170505 2005660.57 735258.81
20160922 2005660.57 719930.23
20160706 2005660.57 718631.60
20160315 1485674.50 532319.71
20160126 1485674.50 523026.58
